c --- [ banner ] -------------------------------------------------------------
c 
c CaDiCaL Radically Simplified CDCL SAT Solver
c Copyright (c) 2016-2021 A. Biere, M. Fleury, N. Froleyks
c 
c Version 1.5.2 9c38a080b32c28d805e8e6ca21849856b0cda605
c g++ (Ubuntu 7.5.0-3ubuntu1~18.04) 7.5.0 -Wall -Wextra -O3 -DNDEBUG
c Wed Feb 16 23:15:36 EST 2022 Linux fac-vanhoeve01 5.4.0-99-generic x86_64
c 
c --- [ limit ] --------------------------------------------------------------
c 
c setting time limit to 600 seconds real time (due to '-t 600')
c setting conflict limit to 1000000000 conflicts (due to '1000000000')
c 
c --- [ parsing input ] ------------------------------------------------------
c 
c reading DIMACS file from 'ddfwcnfs/wap06a.col_40.cnf'
c opening file to read 'ddfwcnfs/wap06a.col_40.cnf'
c found 'p cnf 37880 1554267' header
c parsed 1554267 clauses in 0.99 seconds process time
c closing file 'ddfwcnfs/wap06a.col_40.cnf'
c after reading 24566760 bytes 23.4 MB
c 
c --- [ options ] ------------------------------------------------------------
c 
c all options are set to their default value
c 
c --- [ solving ] ------------------------------------------------------------
c 
c time measured in process time since initialization
c 
c  seconds   reductions  redundant   irredundant
c          MB    restarts       trail        variables
c           level   conflicts       glue          remaining
c 
c *  0.99 138  0 0   0    0    0  0% 0 1552667 36280 96%
c {  1.01 139  0 0   0    0    0  0% 0 1552667 36280 96%
c -  1.40 140 37 1   0  302  208  9% 21 1552667 36280 96%
c }  1.49 140 35 1  21 1002  677  8% 22 1552667 36280 96%
c [  1.49 140  0 1  21 1002  677  0% 0 1552667 36280 96%
c O  1.49 140 37 1  21 1003  678  9% 37 1552667 36280 96%
c -  2.53 187 40 2  21 1616  983  9% 38 1552667 36280 96%
c ]  2.65 187 42 2  22 3002 1896 10% 39 1552667 36280 96%
c {  2.65 187 35 2  22 3002 1896  8% 22 1552667 36280 96%
c F  2.65 187 35 2  22 3004 1898  8% 22 1552667 36280 96%
c -  3.40 188 32 3  25 3588 1534 10% 22 1552667 36280 96%
c #  5.22 186 27 3  36 6005 2759 12% 22 1552667 36280 96%
c -  5.95 186 27 4  37 6218 1786 12% 22 1552667 36280 96%
c }  6.02 186 27 4  37 7005 2239 13% 22 1552667 36280 96%
c [  6.02 186 42 4  37 7005 2239 10% 39 1552667 36280 96%
c -  6.98 186 37 5  39 9505 2673 12% 32 1552667 36280 96%
c I  7.03 186 36 5  39 10007 3030 12% 32 1552667 36280 96%
c s  7.78 190 593 5  40 10839 3480 18% 34 1552667 36280 96%
c e 11.62 190 593 5  40 10839 1541 18% 34 1199313 31498 83%
c s 12.31 202 593 5  40 10839 1519 18% 34 1199313 31498 83%
c 
c  seconds    reductions   redundant    irredundant
c          MB     restarts        trail         variables
c            level    conflicts       glue           remaining
c 
c ^ 12.64 202 593 5  40 10839 1519 18% 34 1199313 31498 83%
c - 14.59 185 497 6  42 13450 2876 28% 44 1199313 31498 83%
c ] 14.80 185 442 6  42 15006 4062 26% 48 1199313 31498 83%
c { 14.80 185 27 6  42 15006 4062 15% 22 1199313 31498 83%
c B 16.47 185 29 6  42 15010 4066 15% 22 1199313 31498 83%
c - 17.24 184 41 7 742 17815 2889 11% 26 1199313 31498 83%
c W 18.00 184 50 7 746 21013 4756 11% 25 1199313 31498 83%
c - 18.81 184 52 8 1204 22804 3223 10% 26 1199313 31498 83%
c F 19.17 184 44 8 1304 28014 6398 10% 25 1199313 31498 83%
c - 19.80 184 44 9 1304 28417 4386 10% 25 1199313 31498 83%
c } 21.76 184 42 9 1305 31006 6388  9% 25 1199313 31498 83%
c [ 21.76 184 442 9 1305 31006 6388 26% 48 1199313 31498 83%
c s 21.94 184 414 9 1305 31845 6418 26% 47 1199313 31498 83%
c s 24.72 184 414 9 1305 31845 6241 26% 47 1199313 31498 83%
c ^ 25.02 184 414 9 1305 31845 6241 26% 47 1199313 31498 83%
c - 25.97 185 336 10 1307 34653 5625 22% 48 1199313 31498 83%
c B 26.13 185 309 10 1308 36016 6330 21% 48 1199313 31498 83%
c - 27.77 186 875 11 1311 41514 7017 28% 58 1199313 31498 83%
c W 29.03 186 768 11 1312 45017 9602 25% 60 1199313 31498 83%
c - 30.21 186 679 12 1313 48998 7613 23% 61 1199313 31498 83%
c 
c  seconds    reductions      redundant    irredundant
c          MB      restarts          trail         variables
c            level      conflicts        glue           remaining
c 
c O 32.86 186 583 12 1314 55020 12259 21% 63 1199313 31498 83%
c - 33.68 186 547 13 1316 57106 8377 20% 61 1199313 31498 83%
c ] 34.31 186 463 13 1320 63006 12434 18% 58 1199313 31498 83%
c { 34.31 186 42 13 1320 63006 12434  9% 25 1199313 31498 83%
c s 34.50 186 42 13 1390 63351 11933  9% 25 1199313 31498 83%
c s 37.36 186 42 13 1390 63351 10870  9% 25 1199313 31498 83%
c ^ 37.65 186 42 13 1390 63351 10870  9% 25 1199313 31498 83%
c - 38.50 185 42 14 2023 65840 6730  9% 26 1199313 31498 83%
c B 38.53 185 42 14 2069 66022 6785  9% 26 1199313 31498 83%
c - 41.75 185 50 15 2405 75195 8471  9% 26 1199313 31498 83%
c W 42.90 185 52 15 2405 78023 10695  9% 26 1199313 31498 83%
c - 44.10 185 50 16 2441 85173 9742  8% 25 1199313 31498 83%
c # 44.57 185 47 16 2441 91025 13744  8% 25 1199313 31498 83%
c - 45.52 185 45 17 2443 95775 9853  8% 24 1199313 31498 83%
c B 48.06 185 41 17 2453 105027 16271  8% 24 1199313 31498 83%
c s 48.21 185 41 17 2461 105359 15425  8% 24 1199313 31498 83%
c s 51.08 185 41 17 2461 105359 15256  8% 24 1199313 31498 83%
c ^ 51.37 185 41 17 2461 105359 15256  8% 24 1199313 31498 83%
c - 52.12 185 40 18 2461 107003 10778  8% 23 1199313 31498 83%
c - 53.49 185 36 19 2461 118852 12198  7% 21 1199313 31498 83%
c 
c  seconds   reductions       redundant    irredundant
c          MB     restarts           trail         variables
c           level      conflicts         glue           remaining
c 
c W 54.94 185 35 19 2461 120028 13142  7% 21 1199313 31498 83%
c } 55.57 185 34 19 2461 127006 18689  7% 20 1199313 31498 83%
c [ 55.57 185 463 19 2461 127006 18689 18% 58 1199313 31498 83%
c - 57.06 186 1437 20 2462 131326 13512 23% 59 1199313 31498 83%
c B 57.87 186 1291 20 2466 136032 16936 22% 59 1199313 31498 83%
c - 62.59 187 1087 21 2469 144428 13278 20% 59 1199313 31498 83%
c W 65.70 187 930 21 2470 153034 19030 19% 59 1199313 31498 83%
c s 66.79 187 858 21 2470 157868 22570 19% 58 1199313 31498 83%
c w 68.45 187 858 21 2470 157868 22564 19% 58 1199313 31498 83%
c s 70.55 187 858 21 2470 157868 22511 19% 58 1199313 31498 83%
c ^ 70.99 187 858 21 2470 157868 22511 19% 58 1199313 31498 83%
c - 71.94 187 853 22 2470 158148 14173 19% 58 1199313 31498 83%
c I 74.31 187 695 22 2473 171039 23528 18% 57 1199313 31498 83%
c - 75.81 188 937 23 2474 172500 14983 19% 61 1199313 31498 83%
c - 83.47 191 881 24 2483 187470 16266 25% 67 1199313 31498 83%
c B 84.13 191 876 24 2484 190041 18370 25% 69 1199313 31498 83%
c - 88.55 191 781 25 2488 203062 17119 26% 73 1199313 31498 83%
c W 92.37 191 807 25 2492 210044 23083 28% 74 1199313 31498 83%
c - 94.56 189 729 26 2497 219277 17569 28% 74 1199313 31498 83%
c s 95.02 189 716 26 2498 220878 18863 28% 74 1199313 31498 83%
c 
c  seconds    reductions       redundant    irredundant
c          MB      restarts           trail         variables
c            level      conflicts         glue           remaining
c 
c w 96.44 189 716 26 2498 220878 18858 28% 74 1199313 31498 83%
c e 98.26 189 716 26 2498 220878 18858 28% 74 1199324 31497 83%
c s 98.36 189 716 26 2498 220878 18849 28% 74 1199324 31497 83%
c O 102.88 189 638 26 2500 231046 26142 27% 74 1199324 31497 83%
c - 104.23 188 600 27 2501 236122 17673 26% 72 1199324 31497 83%
c B 106.42 188 497 27 2502 253047 31058 24% 67 1199324 31497 83%
c - 107.16 188 573 28 2502 253587 18652 24% 68 1199324 31497 83%
c ] 107.51 188 768 28 2502 255010 19839 25% 70 1199324 31497 83%
c { 107.51 188 34 28 2502 255010 19839  7% 20 1199324 31497 83%
c - 110.15 188 45 29 6743 271673 18526  8% 23 1199324 31497 83%
c F 112.50 188 46 29 7872 276049 21977  8% 24 1199324 31497 83%
c - 114.34 186 44 30 11352 290383 15140  9% 25 1199324 31497 83%
c B 115.23 186 42 30 13754 300050 19130  9% 25 1199324 31497 83%
c - 116.45 185 50 31 13771 309719 14524  8% 24 1199324 31497 83%
c W 120.27 185 59 31 13815 325051 24488  8% 22 1199324 31497 83%
c - 121.15 185 57 32 13836 329678 17173  8% 22 1199324 31497 83%
c - 124.81 186 50 33 14049 350259 17194  8% 22 1199324 31497 83%
c # 124.87 186 50 33 14049 351054 17571  8% 22 1199324 31497 83%
c - 127.05 186 44 34 14343 371467 16999  7% 22 1199324 31497 83%
c B 127.57 186 43 34 14436 378058 20531  7% 22 1199324 31497 83%
c 
c  seconds    reductions        redundant    irredundant
c           MB      restarts           trail         variables
c            level       conflicts         glue           remaining
c 
c - 131.68 187 47 35 17652 393296 18622  7% 25 1199324 31497 83%
c W 135.98 187 47 35 18779 406060 27253  7% 25 1199324 31497 83%
c - 137.15 186 45 36 18814 415749 19999  7% 25 1199324 31497 83%
c F 138.70 186 42 36 18824 435061 32592  7% 24 1199324 31497 83%
c - 139.59 186 41 37 18830 438826 21047  7% 24 1199324 31497 83%
c - 144.04 186 37 38 18911 462525 21499  7% 24 1199324 31497 83%
c B 144.27 186 37 38 18913 465062 23282  7% 24 1199324 31497 83%
c - 146.72 187 38 39 21239 486848 23194  7% 24 1199324 31497 83%
c W 150.57 187 39 39 21275 496066 30483  7% 24 1199324 31497 83%
c } 151.73 187 40 39 23642 511010 40440  8% 25 1199324 31497 83%
c [ 151.73 187 768 39 23642 511010 40440 25% 70 1199324 31497 83%
c - 152.35 187 784 40 23642 511795 24090 25% 71 1199324 31497 83%
c W 158.98 187 693 40 23642 528070 34926 23% 66 1199324 31497 83%
c - 160.72 188 627 41 23642 537365 24005 22% 64 1199324 31497 83%
c I 164.19 188 492 41 23656 561072 41961 20% 59 1199324 31497 83%
c - 166.65 197 971 42 23656 563559 27204 21% 84 1199324 31497 83%
c - 174.74 203 1089 43 23669 590377 28817 26% 106 1199324 31497 83%
c s 174.89 203 1089 43 23669 590377 27552 26% 106 1199324 31497 83%
c w 176.31 203 1089 43 23669 590377 27549 26% 106 1199324 31497 83%
c B 177.33 203 1044 43 23671 595073 31275 25% 106 1199324 31497 83%
c 
c  seconds     reductions        redundant    irredundant
c           MB       restarts           trail         variables
c             level       conflicts         glue           remaining
c 
c - 182.45 191 841 44 23673 617818 29481 23% 94 1199324 31497 83%
c W 188.51 191 751 44 23679 630075 38516 22% 89 1199324 31497 83%
c - 192.01 194 1111 45 23687 645884 32541 27% 88 1199324 31497 83%
c O 195.56 194 938 45 23695 666078 48291 29% 89 1199324 31497 83%
c - 197.21 194 865 46 23701 674573 30484 28% 86 1199324 31497 83%
c B 202.93 194 661 46 23704 703079 50188 25% 77 1199324 31497 83%
c - 203.60 190 657 47 23704 703886 28456 25% 77 1199324 31497 83%
c - 213.60 201 968 48 23705 733822 33006 30% 89 1199324 31497 83%
c W 221.46 201 984 48 23706 741080 39057 31% 92 1199324 31497 83%
c - 226.06 197 818 49 23706 764384 35104 32% 89 1199324 31497 83%
c I 229.90 197 746 49 23706 780081 45809 33% 82 1199324 31497 83%
c - 235.87 199 1092 50 23706 795573 33067 35% 95 1199324 31497 83%
c B 242.57 199 1139 50 23716 820082 52630 34% 104 1199324 31497 83%
c - 244.17 201 1076 51 23720 827380 34240 33% 100 1199324 31497 83%
c - 250.86 190 795 52 23735 859812 32767 26% 84 1199324 31497 83%
c W 257.02 190 786 52 23735 861083 33628 26% 83 1199324 31497 83%
c - 266.70 199 791 53 23742 892869 35059 29% 96 1199324 31497 83%
c O 268.39 199 725 53 23747 903084 42790 28% 94 1199324 31497 83%
c - 272.62 192 586 54 23757 926547 32924 26% 85 1199324 31497 83%
c B 276.55 192 493 54 23767 946085 47029 24% 79 1199324 31497 83%
c 
c  seconds     reductions        redundant    irredundant
c           MB       restarts           trail         variables
c             level       conflicts         glue           remaining
c 
c - 282.59 196 799 55 23768 960852 36054 27% 88 1199324 31497 83%
c W 294.29 196 680 55 23769 990087 56786 28% 82 1199324 31497 83%
c - 296.82 195 1045 56 23769 995782 35114 30% 86 1199324 31497 83%
c ] 304.90 195 1285 56 23782 1023010 55814 33% 106 1199324 31497 83%
c { 304.90 195 40 56 23782 1023010 55814  8% 25 1199324 31497 83%
c - 306.34 202 45 57 24293 1031331 37230  8% 25 1199324 31497 83%
c s 306.63 202 45 57 24293 1031331 36355  8% 25 1199324 31497 83%
c w 308.23 202 45 57 24293 1031331 36348  8% 25 1199324 31497 83%
c # 308.89 202 48 57 24293 1035088 39266  8% 25 1199324 31497 83%
c - 314.19 189 42 58 24401 1067505 37174  8% 24 1199324 31497 83%
c B 315.75 189 40 58 24412 1081089 46761  8% 24 1199324 31497 83%
c - 318.58 189 39 59 24611 1104303 37563  8% 24 1199324 31497 83%
c W 328.94 189 38 59 24674 1128091 56406  8% 23 1199324 31497 83%
c - 330.79 189 39 60 24817 1141723 38601  8% 23 1199324 31497 83%
c F 336.34 189 41 60 25185 1176092 62161  8% 23 1199324 31497 83%
c - 337.35 189 41 61 25189 1179767 36951  8% 23 1199324 31497 83%
c - 342.29 188 35 62 25316 1218436 32579  7% 22 1199324 31497 83%
c B 343.11 188 35 62 25408 1225093 35916  7% 22 1199324 31497 83%
c - 348.22 190 41 63 33700 1257729 37139  9% 27 1199324 31497 83%
c W 361.84 190 44 63 38134 1275095 50537 10% 28 1199324 31497 83%
c 
c  seconds    reductions         redundant    irredundant
c           MB      restarts            trail         variables
c            level        conflicts         glue           remaining
c 
c - 366.36 192 47 64 43926 1297644 41002 11% 30 1199324 31497 83%
c # 372.03 192 50 64 51216 1326096 63171 12% 32 1199324 31497 83%
c - 374.41 191 48 65 53680 1338184 39008 12% 32 1199324 31497 83%
c B 379.93 191 45 65 54891 1378098 57873 13% 33 1199324 31497 83%
c - 380.65 188 45 66 54892 1379349 29764 13% 33 1199324 31497 83%
c - 389.30 193 60 67 59363 1421137 38443 13% 40 1199324 31497 83%
c W 400.81 193 60 67 59363 1431099 46148 13% 39 1199324 31497 83%
c - 407.10 191 54 68 59414 1463547 41469 13% 38 1199324 31497 83%
c F 410.93 191 51 68 59420 1485101 56450 12% 38 1199324 31497 83%
c - 416.49 191 49 69 59438 1506581 43142 12% 37 1199324 31497 83%
c s 416.65 191 49 69 59438 1506581 41409 12% 37 1199324 31497 83%
c w 418.10 191 49 69 59438 1506581 41391 12% 37 1199324 31497 83%
c B 422.58 191 46 69 59492 1540103 64219 12% 37 1199324 31497 83%
c - 424.32 191 47 70 59579 1550242 42747 12% 36 1199324 31497 83%
c - 430.02 191 58 71 59589 1594523 46196 13% 33 1199324 31497 83%
c W 441.83 191 58 71 59589 1596104 47432 13% 33 1199324 31497 83%
c - 450.09 190 48 72 59591 1639431 46072 12% 31 1199324 31497 83%
c # 451.83 190 46 72 59609 1653105 56789 12% 31 1199324 31497 83%
c - 455.75 190 42 73 59614 1684959 45199 11% 29 1199324 31497 83%
c B 458.74 190 38 73 59614 1711109 64169 10% 28 1199324 31497 83%
c 
c  seconds    reductions         redundant    irredundant
c           MB      restarts            trail         variables
c            level        conflicts         glue           remaining
c 
c - 461.34 189 37 74 59741 1731111 44073 10% 27 1199324 31497 83%
c W 479.45 189 33 74 59812 1770113 67329  9% 26 1199324 31497 83%
c - 481.27 189 35 75 60969 1777888 40235  9% 26 1199324 31497 83%
c - 486.34 189 38 76 61029 1825287 42473  9% 25 1199324 31497 83%
c F 486.84 189 38 76 61033 1830114 45866  9% 25 1199324 31497 83%
c - 492.10 189 34 77 61050 1873311 44600  8% 24 1199324 31497 83%
c B 495.95 189 33 77 61100 1891116 55776  7% 24 1199324 31497 83%
c - 499.48 188 41 78 61170 1921958 41180  7% 23 1199324 31497 83%
c W 516.50 188 46 78 61320 1953117 59404  7% 23 1199324 31497 83%
c - 519.29 188 49 79 62055 1971228 37936  7% 23 1199324 31497 83%
c # 524.36 188 54 79 62378 2016118 62655  7% 22 1199324 31497 83%
c - 525.51 188 54 80 62394 2021125 39278  7% 22 1199324 31497 83%
c } 529.71 188 47 80 62507 2047010 54349  7% 22 1199324 31497 83%
c [ 529.71 188 1285 80 62507 2047010 54349 33% 106 1199324 31497 83%
c - 533.57 201 1023 81 62516 2071647 43964 29% 92 1199324 31497 83%
c s 533.72 201 1023 81 62516 2071647 41464 29% 92 1199324 31497 83%
c w 535.23 201 1023 81 62516 2071647 41461 29% 92 1199324 31497 83%
c I 536.52 201 946 81 62522 2080119 47171 28% 88 1199324 31497 83%
c - 545.12 213 1309 82 62533 2122789 52527 32% 92 1199324 31497 83%
c B 548.56 213 1073 82 62542 2145122 69708 29% 90 1199324 31497 83%
c 
c  seconds     reductions         redundant    irredundant
c           MB       restarts            trail         variables
c             level        conflicts         glue           remaining
c 
c - 554.64 209 825 83 62555 2174554 53331 26% 87 1199324 31497 83%
c W 578.25 209 600 83 62557 2211125 83574 23% 81 1199324 31497 83%
c - 581.72 208 637 84 62558 2226945 56952 23% 80 1199324 31497 83%
c O 597.62 208 4211 84 62558 2278127 101367 40% 124 1199324 31497 83%
c - 598.47 232 4136 85 62558 2279960 60281 40% 122 1199324 31497 83%
c ] 599.87 232 3611 85 62559 2293995 70890 36% 112 1199324 31497 83%
c ? 599.87 232 3611 85 62559 2293995 70890 36% 112 1199324 31497 83%
c 
c --- [ result ] -------------------------------------------------------------
c 
c UNKNOWN
c 
c --- [ run-time profiling ] -------------------------------------------------
c 
c process time taken by individual solving procedures
c (percentage relative to process time for solving)
c 
c       517.06   86.34% search
c       211.97   35.40% stable
c       183.96   30.72% unstable
c       121.11   20.22% walk
c        81.81   13.66% simplify
c        22.37    3.74% probe
c        15.92    2.66% ternary
c        10.79    1.80% elim
c        10.79    1.80% vivify
c         2.96    0.49% subsume
c         0.99    0.16% parse
c         0.02    0.00% lucky
c   =================================
c       598.88   99.84% solve
c 
c last line shows process time for solving
c (percentage relative to total process time)
c 
c --- [ statistics ] ---------------------------------------------------------
c 
c chronological:            367811        16.03 %  of conflicts
c conflicts:               2293995      3830.48    per second
c decisions:               3282327      5480.79    per second
c eliminated:                 4783        12.63 %  of all variables
c fixed:                      1600         4.22 %  of all variables
c learned:                 2272314        99.05 %  per conflict
c learned_lits:          258646700       100.00 %  learned literals
c minimized:                     0         0.00 %  learned literals
c shrunken:              100378360        38.81 %  learned literals
c minishrunken:            8186455         3.17 %  learned literals
c propagations:          615194526         1.03 M  per second
c reduced:                 1547288        67.45 %  per conflict
c rephased:                     67     34238.73    interval
c restarts:                  62559        36.67    interval
c stabilizing:                   6        40.50 %  of conflicts
c subsumed:                 652143         8.44 %  of all clauses
c strengthened:              24722         0.32 %  of all clauses
c vivified:                    135         0.00 %  of all clauses
c walked:                       21    109237.86    interval
c weakened:                 390440         2.42    average size
c 
c seconds are measured in process time for solving
c 
c --- [ resources ] ----------------------------------------------------------
c 
c total process time since initialization:       599.87    seconds
c total real time since initialization:          600.00    seconds
c maximum resident set size of process:          279.13    MB
c 
c --- [ shutting down ] ------------------------------------------------------
c 
c exit 0
